Maximize
  0.00399889356782185 Z_659_1_0 + 0.00572275138839352 Z_659_1_1
   + 0.7888422682107812 Z_659_1_2 + 0.00902318393277019 Z_659_1_3
   + 0.1210435569238402 Z_659_0_0 + 0.0634541379828501 Z_659_0_1
   + 0.0703427679244647 Z_659_0_2 + 0.0698382480742449 Z_659_0_3
   + 5.4731321405917523e-04 Z_318_0_0 + 0.0768724819858123 Z_318_0_1
   + 0.2645065925311391 Z_318_0_2 + 0.011807013021197 Z_318_0_3
   + 0.000399545 Z_595_0_0 + 0.0470448719158764 Z_595_0_1
   + 0.5528180275619577 Z_595_0_2 + 0.0073959963136799 Z_595_0_3
   + 0.0344574575112441 Z_420_0_0 + 0.0801019985087614 Z_420_0_1
   + 0.0117385217700195 Z_420_0_2 + 0.6758972436696252 Z_420_0_3
   + 0.0177065624808695 Z_200_0_0 + 0.0845263567612443 Z_200_0_1
   + 0.3370347214403198 Z_200_0_2 + 0.043870198044874 Z_200_0_3
   + 4.0835862219291698e-04 Z_507_0_0 + 0.027022209540042 Z_507_0_1
   + 0.4642535967382519 Z_507_0_2 + 0.0158644320210938 Z_507_0_3 + [
   0.00625 Z_659_1_0 * Z_595_0_0
   + 8.045572259516631e-04 Z_659_1_0 * Z_420_0_0
   + 0.00625 Z_659_1_1 * Z_595_0_1
   + 8.045572259516631e-04 Z_659_1_1 * Z_420_0_1
   + 0.00625 Z_659_1_2 * Z_595_0_2
   + 8.045572259516631e-04 Z_659_1_2 * Z_420_0_2
   + 0.00625 Z_659_1_3 * Z_595_0_3
   + 8.045572259516631e-04 Z_659_1_3 * Z_420_0_3
   + 0.0691339223437277 Z_659_0_0 * Z_420_0_0
   + 0.0691339223437277 Z_659_0_1 * Z_420_0_1
   + 0.0691339223437277 Z_659_0_2 * Z_420_0_2
   + 0.0691339223437277 Z_659_0_3 * Z_420_0_3 ] / 2 
Subject To
 constraint1_6591: Z_659_1_0 + Z_659_1_1 + Z_659_1_2 + Z_659_1_3 <= 1
 constraint1_6590: Z_659_0_0 + Z_659_0_1 + Z_659_0_2 + Z_659_0_3 <= 1
 constraint1_3180: Z_318_0_0 + Z_318_0_1 + Z_318_0_2 + Z_318_0_3 <= 1
 constraint1_5950: Z_595_0_0 + Z_595_0_1 + Z_595_0_2 + Z_595_0_3 <= 1
 constraint1_4200: Z_420_0_0 + Z_420_0_1 + Z_420_0_2 + Z_420_0_3 <= 1
 constraint1_2000: Z_200_0_0 + Z_200_0_1 + Z_200_0_2 + Z_200_0_3 <= 1
 constraint1_5070: Z_507_0_0 + Z_507_0_1 + Z_507_0_2 + Z_507_0_3 <= 1
 constraint2_6590: Z_659_1_0 + Z_659_0_0 <= 1
 constraint2_6591: Z_659_1_1 + Z_659_0_1 <= 1
 constraint2_6592: Z_659_1_2 + Z_659_0_2 <= 1
 constraint2_6593: Z_659_1_3 + Z_659_0_3 <= 1
 constraint2_3180: Z_318_0_0 <= 1
 constraint2_3181: Z_318_0_1 <= 1
 constraint2_3182: Z_318_0_2 <= 1
 constraint2_3183: Z_318_0_3 <= 1
 constraint2_5950: Z_595_0_0 <= 1
 constraint2_5951: Z_595_0_1 <= 1
 constraint2_5952: Z_595_0_2 <= 1
 constraint2_5953: Z_595_0_3 <= 1
 constraint2_4200: Z_420_0_0 <= 1
 constraint2_4201: Z_420_0_1 <= 1
 constraint2_4202: Z_420_0_2 <= 1
 constraint2_4203: Z_420_0_3 <= 1
 constraint2_2000: Z_200_0_0 <= 1
 constraint2_2001: Z_200_0_1 <= 1
 constraint2_2002: Z_200_0_2 <= 1
 constraint2_2003: Z_200_0_3 <= 1
 constraint2_5070: Z_507_0_0 <= 1
 constraint2_5071: Z_507_0_1 <= 1
 constraint2_5072: Z_507_0_2 <= 1
 constraint2_5073: Z_507_0_3 <= 1
Bounds
Binaries
 Z_659_1_0 Z_659_1_1 Z_659_1_2 Z_659_1_3 Z_659_0_0 Z_659_0_1 Z_659_0_2
 Z_659_0_3 Z_318_0_0 Z_318_0_1 Z_318_0_2 Z_318_0_3 Z_595_0_0 Z_595_0_1
 Z_595_0_2 Z_595_0_3 Z_420_0_0 Z_420_0_1 Z_420_0_2 Z_420_0_3 Z_200_0_0
 Z_200_0_1 Z_200_0_2 Z_200_0_3 Z_507_0_0 Z_507_0_1 Z_507_0_2 Z_507_0_3
End
